(set-logic HORN)
(declare-fun invariant (Real Real Real Real Real Real Real Real Real Real Real Real Real Real Real Real Real Real Real Real Real Real Real Real Real Real Real Real Real Real Real Real Real Real Real Real Real Real Real Real Real Real Real Real Real Real Real Real Real Real Real Real Real Real Real Real Real Real Real Real Bool Bool Bool Bool Bool Bool Bool Bool Bool Bool Bool Real Real Real Real Real Real Real Real) Bool)

;; Initial state
(assert
  (forall ((state.cx!0!0 Real) (state.cx!0!1 Real) (state.cx!0!2 Real) (state.cx!0!3 Real) (state.cx!0!4 Real) (state.cx!0!5 Real) (state.cx!1!0 Real) (state.cx!1!1 Real) (state.cx!1!2 Real) (state.cx!1!3 Real) (state.cx!1!4 Real) (state.cx!1!5 Real) (state.cx!2!0 Real) (state.cx!2!1 Real) (state.cx!2!2 Real) (state.cx!2!3 Real) (state.cx!2!4 Real) (state.cx!2!5 Real) (state.cx!3!0 Real) (state.cx!3!1 Real) (state.cx!3!2 Real) (state.cx!3!3 Real) (state.cx!3!4 Real) (state.cx!3!5 Real) (state.cx!4!0 Real) (state.cx!4!1 Real) (state.cx!4!2 Real) (state.cx!4!3 Real) (state.cx!4!4 Real) (state.cx!4!5 Real) (state.cy!0!0 Real) (state.cy!0!1 Real) (state.cy!0!2 Real) (state.cy!0!3 Real) (state.cy!0!4 Real) (state.cy!0!5 Real) (state.cy!1!0 Real) (state.cy!1!1 Real) (state.cy!1!2 Real) (state.cy!1!3 Real) (state.cy!1!4 Real) (state.cy!1!5 Real) (state.cy!2!0 Real) (state.cy!2!1 Real) (state.cy!2!2 Real) (state.cy!2!3 Real) (state.cy!2!4 Real) (state.cy!2!5 Real) (state.cy!3!0 Real) (state.cy!3!1 Real) (state.cy!3!2 Real) (state.cy!3!3 Real) (state.cy!3!4 Real) (state.cy!3!5 Real) (state.cy!4!0 Real) (state.cy!4!1 Real) (state.cy!4!2 Real) (state.cy!4!3 Real) (state.cy!4!4 Real) (state.cy!4!5 Real) (state.good_p!0 Bool) (state.good_p!1 Bool) (state.good_p!2 Bool) (state.good_p!3 Bool) (state.good_p!4 Bool) (state.good_r!0 Bool) (state.good_r!1 Bool) (state.good_r!2 Bool) (state.good_r!3 Bool) (state.good_r!4 Bool) (state.good_r!5 Bool) (state.v!0 Real) (state.v!1 Real) (state.v!2 Real) (state.v!3 Real) (state.v!4 Real) (state.round Real) (state.source Real) (state.val Real))
    (=> (let ((l0 (= |state.round| 0))) (let ((l1 (= |state.cx!0!0| 0))) (let ((l2 (= |state.cx!0!1| 0))) (let ((l3 (= |state.cx!0!2| 0))) (let ((l4 (= |state.cx!0!3| 0))) (let ((l5 (= |state.cx!0!4| 0))) (let ((l6 (= |state.cx!0!5| 0))) (let ((l7 (= |state.cx!1!0| 0))) (let ((l8 (= |state.cx!1!1| 0))) (let ((l9 (= |state.cx!1!2| 0))) (let ((l10 (= |state.cx!1!3| 0))) (let ((l11 (= |state.cx!1!4| 0))) (let ((l12 (= |state.cx!1!5| 0))) (let ((l13 (= |state.cx!2!0| 0))) (let ((l14 (= |state.cx!2!1| 0))) (let ((l15 (= |state.cx!2!2| 0))) (let ((l16 (= |state.cx!2!3| 0))) (let ((l17 (= |state.cx!2!4| 0))) (let ((l18 (= |state.cx!2!5| 0))) (let ((l19 (= |state.cx!3!0| 0))) (let ((l20 (= |state.cx!3!1| 0))) (let ((l21 (= |state.cx!3!2| 0))) (let ((l22 (= |state.cx!3!3| 0))) (let ((l23 (= |state.cx!3!4| 0))) (let ((l24 (= |state.cx!3!5| 0))) (let ((l25 (= |state.cx!4!0| 0))) (let ((l26 (= |state.cx!4!1| 0))) (let ((l27 (= |state.cx!4!2| 0))) (let ((l28 (= |state.cx!4!3| 0))) (let ((l29 (= |state.cx!4!4| 0))) (let ((l30 (= |state.cx!4!5| 0))) (let ((l31 (= |state.cy!0!0| 0))) (let ((l32 (= |state.cy!0!1| 0))) (let ((l33 (= |state.cy!0!2| 0))) (let ((l34 (= |state.cy!0!3| 0))) (let ((l35 (= |state.cy!0!4| 0))) (let ((l36 (= |state.cy!0!5| 0))) (let ((l37 (= |state.cy!1!0| 0))) (let ((l38 (= |state.cy!1!1| 0))) (let ((l39 (= |state.cy!1!2| 0))) (let ((l40 (= |state.cy!1!3| 0))) (let ((l41 (= |state.cy!1!4| 0))) (let ((l42 (= |state.cy!1!5| 0))) (let ((l43 (= |state.cy!2!0| 0))) (let ((l44 (= |state.cy!2!1| 0))) (let ((l45 (= |state.cy!2!2| 0))) (let ((l46 (= |state.cy!2!3| 0))) (let ((l47 (= |state.cy!2!4| 0))) (let ((l48 (= |state.cy!2!5| 0))) (let ((l49 (= |state.cy!3!0| 0))) (let ((l50 (= |state.cy!3!1| 0))) (let ((l51 (= |state.cy!3!2| 0))) (let ((l52 (= |state.cy!3!3| 0))) (let ((l53 (= |state.cy!3!4| 0))) (let ((l54 (= |state.cy!3!5| 0))) (let ((l55 (= |state.cy!4!0| 0))) (let ((l56 (= |state.cy!4!1| 0))) (let ((l57 (= |state.cy!4!2| 0))) (let ((l58 (= |state.cy!4!3| 0))) (let ((l59 (= |state.cy!4!4| 0))) (let ((l60 (= |state.cy!4!5| 0))) (let ((l61 (= |state.source| 1))) (let ((l62 (= |state.source| 2))) (let ((l63 (= |state.source| 3))) (let ((l64 (= |state.source| 4))) (let ((l65 (= |state.source| 5))) (let ((l66 (or l61 l62 l63 l64 l65))) (let ((l67 (= |state.val| 0))) (let ((l68 (not l67))) (let ((l69 (and |state.good_p!0| |state.good_p!1| |state.good_p!2| |state.good_p!3| |state.good_p!4|))) (let ((l70 (not |state.good_r!0|))) (let ((l71 (and l70 |state.good_r!1| |state.good_r!2| |state.good_r!3| |state.good_r!4| |state.good_r!5|))) (let ((l72 (not |state.good_r!1|))) (let ((l73 (and l72 |state.good_r!0| |state.good_r!2| |state.good_r!3| |state.good_r!4| |state.good_r!5|))) (let ((l74 (not |state.good_r!2|))) (let ((l75 (and l74 |state.good_r!0| |state.good_r!1| |state.good_r!3| |state.good_r!4| |state.good_r!5|))) (let ((l76 (not |state.good_r!3|))) (let ((l77 (and l76 |state.good_r!0| |state.good_r!1| |state.good_r!2| |state.good_r!4| |state.good_r!5|))) (let ((l78 (not |state.good_r!4|))) (let ((l79 (and l78 |state.good_r!0| |state.good_r!1| |state.good_r!2| |state.good_r!3| |state.good_r!5|))) (let ((l80 (not |state.good_r!5|))) (let ((l81 (and l80 |state.good_r!0| |state.good_r!1| |state.good_r!2| |state.good_r!3| |state.good_r!4|))) (let ((l82 (or l71 l73 l75 l77 l79 l81))) (let ((l83 (and l0 l1 l2 l3 l4 l5 l6 l7 l8 l9 l10 l11 l12 l13 l14 l15 l16 l17 l18 l19 l20 l21 l22 l23 l24 l25 l26 l27 l28 l29 l30 l31 l32 l33 l34 l35 l36 l37 l38 l39 l40 l41 l42 l43 l44 l45 l46 l47 l48 l49 l50 l51 l52 l53 l54 l55 l56 l57 l58 l59 l60 l66 l68 l69 l82))) l83))))))))))))))))))))))))))))))))))))))))))))))))))))))))))))))))))))))))))))))))))))
        (invariant state.cx!0!0 state.cx!0!1 state.cx!0!2 state.cx!0!3 state.cx!0!4 state.cx!0!5 state.cx!1!0 state.cx!1!1 state.cx!1!2 state.cx!1!3 state.cx!1!4 state.cx!1!5 state.cx!2!0 state.cx!2!1 state.cx!2!2 state.cx!2!3 state.cx!2!4 state.cx!2!5 state.cx!3!0 state.cx!3!1 state.cx!3!2 state.cx!3!3 state.cx!3!4 state.cx!3!5 state.cx!4!0 state.cx!4!1 state.cx!4!2 state.cx!4!3 state.cx!4!4 state.cx!4!5 state.cy!0!0 state.cy!0!1 state.cy!0!2 state.cy!0!3 state.cy!0!4 state.cy!0!5 state.cy!1!0 state.cy!1!1 state.cy!1!2 state.cy!1!3 state.cy!1!4 state.cy!1!5 state.cy!2!0 state.cy!2!1 state.cy!2!2 state.cy!2!3 state.cy!2!4 state.cy!2!5 state.cy!3!0 state.cy!3!1 state.cy!3!2 state.cy!3!3 state.cy!3!4 state.cy!3!5 state.cy!4!0 state.cy!4!1 state.cy!4!2 state.cy!4!3 state.cy!4!4 state.cy!4!5 state.good_p!0 state.good_p!1 state.good_p!2 state.good_p!3 state.good_p!4 state.good_r!0 state.good_r!1 state.good_r!2 state.good_r!3 state.good_r!4 state.good_r!5 state.v!0 state.v!1 state.v!2 state.v!3 state.v!4 state.round state.source state.val))
  )
)

;; Transition relation
(assert
  (forall ((state.cx!0!0 Real) (next.cx!0!0 Real) (state.cx!0!1 Real) (next.cx!0!1 Real) (state.cx!0!2 Real) (next.cx!0!2 Real) (state.cx!0!3 Real) (next.cx!0!3 Real) (state.cx!0!4 Real) (next.cx!0!4 Real) (state.cx!0!5 Real) (next.cx!0!5 Real) (state.cx!1!0 Real) (next.cx!1!0 Real) (state.cx!1!1 Real) (next.cx!1!1 Real) (state.cx!1!2 Real) (next.cx!1!2 Real) (state.cx!1!3 Real) (next.cx!1!3 Real) (state.cx!1!4 Real) (next.cx!1!4 Real) (state.cx!1!5 Real) (next.cx!1!5 Real) (state.cx!2!0 Real) (next.cx!2!0 Real) (state.cx!2!1 Real) (next.cx!2!1 Real) (state.cx!2!2 Real) (next.cx!2!2 Real) (state.cx!2!3 Real) (next.cx!2!3 Real) (state.cx!2!4 Real) (next.cx!2!4 Real) (state.cx!2!5 Real) (next.cx!2!5 Real) (state.cx!3!0 Real) (next.cx!3!0 Real) (state.cx!3!1 Real) (next.cx!3!1 Real) (state.cx!3!2 Real) (next.cx!3!2 Real) (state.cx!3!3 Real) (next.cx!3!3 Real) (state.cx!3!4 Real) (next.cx!3!4 Real) (state.cx!3!5 Real) (next.cx!3!5 Real) (state.cx!4!0 Real) (next.cx!4!0 Real) (state.cx!4!1 Real) (next.cx!4!1 Real) (state.cx!4!2 Real) (next.cx!4!2 Real) (state.cx!4!3 Real) (next.cx!4!3 Real) (state.cx!4!4 Real) (next.cx!4!4 Real) (state.cx!4!5 Real) (next.cx!4!5 Real) (state.cy!0!0 Real) (next.cy!0!0 Real) (state.cy!0!1 Real) (next.cy!0!1 Real) (state.cy!0!2 Real) (next.cy!0!2 Real) (state.cy!0!3 Real) (next.cy!0!3 Real) (state.cy!0!4 Real) (next.cy!0!4 Real) (state.cy!0!5 Real) (next.cy!0!5 Real) (state.cy!1!0 Real) (next.cy!1!0 Real) (state.cy!1!1 Real) (next.cy!1!1 Real) (state.cy!1!2 Real) (next.cy!1!2 Real) (state.cy!1!3 Real) (next.cy!1!3 Real) (state.cy!1!4 Real) (next.cy!1!4 Real) (state.cy!1!5 Real) (next.cy!1!5 Real) (state.cy!2!0 Real) (next.cy!2!0 Real) (state.cy!2!1 Real) (next.cy!2!1 Real) (state.cy!2!2 Real) (next.cy!2!2 Real) (state.cy!2!3 Real) (next.cy!2!3 Real) (state.cy!2!4 Real) (next.cy!2!4 Real) (state.cy!2!5 Real) (next.cy!2!5 Real) (state.cy!3!0 Real) (next.cy!3!0 Real) (state.cy!3!1 Real) (next.cy!3!1 Real) (state.cy!3!2 Real) (next.cy!3!2 Real) (state.cy!3!3 Real) (next.cy!3!3 Real) (state.cy!3!4 Real) (next.cy!3!4 Real) (state.cy!3!5 Real) (next.cy!3!5 Real) (state.cy!4!0 Real) (next.cy!4!0 Real) (state.cy!4!1 Real) (next.cy!4!1 Real) (state.cy!4!2 Real) (next.cy!4!2 Real) (state.cy!4!3 Real) (next.cy!4!3 Real) (state.cy!4!4 Real) (next.cy!4!4 Real) (state.cy!4!5 Real) (next.cy!4!5 Real) (state.good_p!0 Bool) (next.good_p!0 Bool) (state.good_p!1 Bool) (next.good_p!1 Bool) (state.good_p!2 Bool) (next.good_p!2 Bool) (state.good_p!3 Bool) (next.good_p!3 Bool) (state.good_p!4 Bool) (next.good_p!4 Bool) (state.good_r!0 Bool) (next.good_r!0 Bool) (state.good_r!1 Bool) (next.good_r!1 Bool) (state.good_r!2 Bool) (next.good_r!2 Bool) (state.good_r!3 Bool) (next.good_r!3 Bool) (state.good_r!4 Bool) (next.good_r!4 Bool) (state.good_r!5 Bool) (next.good_r!5 Bool) (state.v!0 Real) (next.v!0 Real) (state.v!1 Real) (next.v!1 Real) (state.v!2 Real) (next.v!2 Real) (state.v!3 Real) (next.v!3 Real) (state.v!4 Real) (next.v!4 Real) (state.round Real) (next.round Real) (state.source Real) (next.source Real) (state.val Real) (next.val Real))
    (=> (and (invariant state.cx!0!0 state.cx!0!1 state.cx!0!2 state.cx!0!3 state.cx!0!4 state.cx!0!5 state.cx!1!0 state.cx!1!1 state.cx!1!2 state.cx!1!3 state.cx!1!4 state.cx!1!5 state.cx!2!0 state.cx!2!1 state.cx!2!2 state.cx!2!3 state.cx!2!4 state.cx!2!5 state.cx!3!0 state.cx!3!1 state.cx!3!2 state.cx!3!3 state.cx!3!4 state.cx!3!5 state.cx!4!0 state.cx!4!1 state.cx!4!2 state.cx!4!3 state.cx!4!4 state.cx!4!5 state.cy!0!0 state.cy!0!1 state.cy!0!2 state.cy!0!3 state.cy!0!4 state.cy!0!5 state.cy!1!0 state.cy!1!1 state.cy!1!2 state.cy!1!3 state.cy!1!4 state.cy!1!5 state.cy!2!0 state.cy!2!1 state.cy!2!2 state.cy!2!3 state.cy!2!4 state.cy!2!5 state.cy!3!0 state.cy!3!1 state.cy!3!2 state.cy!3!3 state.cy!3!4 state.cy!3!5 state.cy!4!0 state.cy!4!1 state.cy!4!2 state.cy!4!3 state.cy!4!4 state.cy!4!5 state.good_p!0 state.good_p!1 state.good_p!2 state.good_p!3 state.good_p!4 state.good_r!0 state.good_r!1 state.good_r!2 state.good_r!3 state.good_r!4 state.good_r!5 state.v!0 state.v!1 state.v!2 state.v!3 state.v!4 state.round state.source state.val)
             (let ((l0 (= |next.source| |state.source|))) (let ((l1 (= |next.val| |state.val|))) (let ((l2 (= |state.round| 0))) (let ((l3 (not |state.good_p!0|))) (let ((l4 (= 1 |state.source|))) (let ((l5 (not l4))) (let ((l6 (= |next.cx!0!0| |state.val|))) (let ((l7 (= |next.cx!0!1| |state.val|))) (let ((l8 (= |next.cx!0!2| |state.val|))) (let ((l9 (= |next.cx!0!3| |state.val|))) (let ((l10 (= |next.cx!0!4| |state.val|))) (let ((l11 (= |next.cx!0!5| |state.val|))) (let ((l12 (and l6 l7 l8 l9 l10 l11))) (let ((l13 (or l3 l5 l12))) (let ((l14 (not |state.good_p!1|))) (let ((l15 (= 2 |state.source|))) (let ((l16 (not l15))) (let ((l17 (= |next.cx!1!0| |state.val|))) (let ((l18 (= |next.cx!1!1| |state.val|))) (let ((l19 (= |next.cx!1!2| |state.val|))) (let ((l20 (= |next.cx!1!3| |state.val|))) (let ((l21 (= |next.cx!1!4| |state.val|))) (let ((l22 (= |next.cx!1!5| |state.val|))) (let ((l23 (and l17 l18 l19 l20 l21 l22))) (let ((l24 (or l14 l16 l23))) (let ((l25 (not |state.good_p!2|))) (let ((l26 (= 3 |state.source|))) (let ((l27 (not l26))) (let ((l28 (= |next.cx!2!0| |state.val|))) (let ((l29 (= |next.cx!2!1| |state.val|))) (let ((l30 (= |next.cx!2!2| |state.val|))) (let ((l31 (= |next.cx!2!3| |state.val|))) (let ((l32 (= |next.cx!2!4| |state.val|))) (let ((l33 (= |next.cx!2!5| |state.val|))) (let ((l34 (and l28 l29 l30 l31 l32 l33))) (let ((l35 (or l25 l27 l34))) (let ((l36 (not |state.good_p!3|))) (let ((l37 (= 4 |state.source|))) (let ((l38 (not l37))) (let ((l39 (= |next.cx!3!0| |state.val|))) (let ((l40 (= |next.cx!3!1| |state.val|))) (let ((l41 (= |next.cx!3!2| |state.val|))) (let ((l42 (= |next.cx!3!3| |state.val|))) (let ((l43 (= |next.cx!3!4| |state.val|))) (let ((l44 (= |next.cx!3!5| |state.val|))) (let ((l45 (and l39 l40 l41 l42 l43 l44))) (let ((l46 (or l36 l38 l45))) (let ((l47 (not |state.good_p!4|))) (let ((l48 (= 5 |state.source|))) (let ((l49 (not l48))) (let ((l50 (= |next.cx!4!0| |state.val|))) (let ((l51 (= |next.cx!4!1| |state.val|))) (let ((l52 (= |next.cx!4!2| |state.val|))) (let ((l53 (= |next.cx!4!3| |state.val|))) (let ((l54 (= |next.cx!4!4| |state.val|))) (let ((l55 (= |next.cx!4!5| |state.val|))) (let ((l56 (and l50 l51 l52 l53 l54 l55))) (let ((l57 (or l47 l49 l56))) (let ((l58 (= |next.cx!0!0| 0))) (let ((l59 (= |next.cx!0!1| 0))) (let ((l60 (= |next.cx!0!2| 0))) (let ((l61 (= |next.cx!0!3| 0))) (let ((l62 (= |next.cx!0!4| 0))) (let ((l63 (= |next.cx!0!5| 0))) (let ((l64 (and l58 l59 l60 l61 l62 l63))) (let ((l65 (or l3 l4 l64))) (let ((l66 (= |next.cx!1!0| 0))) (let ((l67 (= |next.cx!1!1| 0))) (let ((l68 (= |next.cx!1!2| 0))) (let ((l69 (= |next.cx!1!3| 0))) (let ((l70 (= |next.cx!1!4| 0))) (let ((l71 (= |next.cx!1!5| 0))) (let ((l72 (and l66 l67 l68 l69 l70 l71))) (let ((l73 (or l14 l15 l72))) (let ((l74 (= |next.cx!2!0| 0))) (let ((l75 (= |next.cx!2!1| 0))) (let ((l76 (= |next.cx!2!2| 0))) (let ((l77 (= |next.cx!2!3| 0))) (let ((l78 (= |next.cx!2!4| 0))) (let ((l79 (= |next.cx!2!5| 0))) (let ((l80 (and l74 l75 l76 l77 l78 l79))) (let ((l81 (or l25 l26 l80))) (let ((l82 (= |next.cx!3!0| 0))) (let ((l83 (= |next.cx!3!1| 0))) (let ((l84 (= |next.cx!3!2| 0))) (let ((l85 (= |next.cx!3!3| 0))) (let ((l86 (= |next.cx!3!4| 0))) (let ((l87 (= |next.cx!3!5| 0))) (let ((l88 (and l82 l83 l84 l85 l86 l87))) (let ((l89 (or l36 l37 l88))) (let ((l90 (= |next.cx!4!0| 0))) (let ((l91 (= |next.cx!4!1| 0))) (let ((l92 (= |next.cx!4!2| 0))) (let ((l93 (= |next.cx!4!3| 0))) (let ((l94 (= |next.cx!4!4| 0))) (let ((l95 (= |next.cx!4!5| 0))) (let ((l96 (and l90 l91 l92 l93 l94 l95))) (let ((l97 (or l47 l48 l96))) (let ((l98 (and l13 l24 l35 l46 l57 l65 l73 l81 l89 l97))) (let ((l99 (= |next.round| 1))) (let ((l100 (= |next.cy!0!0| |state.cy!0!0|))) (let ((l101 (= |next.cy!0!1| |state.cy!0!1|))) (let ((l102 (= |next.cy!0!2| |state.cy!0!2|))) (let ((l103 (= |next.cy!0!3| |state.cy!0!3|))) (let ((l104 (= |next.cy!0!4| |state.cy!0!4|))) (let ((l105 (= |next.cy!0!5| |state.cy!0!5|))) (let ((l106 (= |next.cy!1!0| |state.cy!1!0|))) (let ((l107 (= |next.cy!1!1| |state.cy!1!1|))) (let ((l108 (= |next.cy!1!2| |state.cy!1!2|))) (let ((l109 (= |next.cy!1!3| |state.cy!1!3|))) (let ((l110 (= |next.cy!1!4| |state.cy!1!4|))) (let ((l111 (= |next.cy!1!5| |state.cy!1!5|))) (let ((l112 (= |next.cy!2!0| |state.cy!2!0|))) (let ((l113 (= |next.cy!2!1| |state.cy!2!1|))) (let ((l114 (= |next.cy!2!2| |state.cy!2!2|))) (let ((l115 (= |next.cy!2!3| |state.cy!2!3|))) (let ((l116 (= |next.cy!2!4| |state.cy!2!4|))) (let ((l117 (= |next.cy!2!5| |state.cy!2!5|))) (let ((l118 (= |next.cy!3!0| |state.cy!3!0|))) (let ((l119 (= |next.cy!3!1| |state.cy!3!1|))) (let ((l120 (= |next.cy!3!2| |state.cy!3!2|))) (let ((l121 (= |next.cy!3!3| |state.cy!3!3|))) (let ((l122 (= |next.cy!3!4| |state.cy!3!4|))) (let ((l123 (= |next.cy!3!5| |state.cy!3!5|))) (let ((l124 (= |next.cy!4!0| |state.cy!4!0|))) (let ((l125 (= |next.cy!4!1| |state.cy!4!1|))) (let ((l126 (= |next.cy!4!2| |state.cy!4!2|))) (let ((l127 (= |next.cy!4!3| |state.cy!4!3|))) (let ((l128 (= |next.cy!4!4| |state.cy!4!4|))) (let ((l129 (= |next.cy!4!5| |state.cy!4!5|))) (let ((l130 (and l100 l101 l102 l103 l104 l105 l106 l107 l108 l109 l110 l111 l112 l113 l114 l115 l116 l117 l118 l119 l120 l121 l122 l123 l124 l125 l126 l127 l128 l129))) (let ((l131 (= |next.good_p!0| |state.good_p!0|))) (let ((l132 (= |next.good_p!1| |state.good_p!1|))) (let ((l133 (= |next.good_p!2| |state.good_p!2|))) (let ((l134 (= |next.good_p!3| |state.good_p!3|))) (let ((l135 (= |next.good_p!4| |state.good_p!4|))) (let ((l136 (and l131 l132 l133 l134 l135))) (let ((l137 (= |next.good_r!0| |state.good_r!0|))) (let ((l138 (= |next.good_r!1| |state.good_r!1|))) (let ((l139 (= |next.good_r!2| |state.good_r!2|))) (let ((l140 (= |next.good_r!3| |state.good_r!3|))) (let ((l141 (= |next.good_r!4| |state.good_r!4|))) (let ((l142 (= |next.good_r!5| |state.good_r!5|))) (let ((l143 (and l137 l138 l139 l140 l141 l142))) (let ((l144 (= |next.v!0| |state.v!0|))) (let ((l145 (= |next.v!1| |state.v!1|))) (let ((l146 (= |next.v!2| |state.v!2|))) (let ((l147 (= |next.v!3| |state.v!3|))) (let ((l148 (= |next.v!4| |state.v!4|))) (let ((l149 (and l144 l145 l146 l147 l148))) (let ((l150 (and l2 l98 l99 l130 l136 l143 l149))) (let ((l151 (= |state.round| 1))) (let ((l152 (not |state.good_r!0|))) (let ((l153 (= |state.source| 5))) (let ((l154 (= |state.source| 4))) (let ((l155 (= |state.source| 3))) (let ((l156 (= |state.source| 2))) (let ((l157 (ite l156 |state.cx!1!0| |state.cx!0!0|))) (let ((l158 (ite l155 |state.cx!2!0| l157))) (let ((l159 (ite l154 |state.cx!3!0| l158))) (let ((l160 (ite l153 |state.cx!4!0| l159))) (let ((l161 (= |next.cy!0!0| l160))) (let ((l162 (or l152 l161))) (let ((l163 (= |next.cy!1!0| l160))) (let ((l164 (or l152 l163))) (let ((l165 (= |next.cy!2!0| l160))) (let ((l166 (or l152 l165))) (let ((l167 (= |next.cy!3!0| l160))) (let ((l168 (or l152 l167))) (let ((l169 (= |next.cy!4!0| l160))) (let ((l170 (or l152 l169))) (let ((l171 (not |state.good_r!1|))) (let ((l172 (ite l156 |state.cx!1!1| |state.cx!0!1|))) (let ((l173 (ite l155 |state.cx!2!1| l172))) (let ((l174 (ite l154 |state.cx!3!1| l173))) (let ((l175 (ite l153 |state.cx!4!1| l174))) (let ((l176 (= |next.cy!0!1| l175))) (let ((l177 (or l171 l176))) (let ((l178 (= |next.cy!1!1| l175))) (let ((l179 (or l171 l178))) (let ((l180 (= |next.cy!2!1| l175))) (let ((l181 (or l171 l180))) (let ((l182 (= |next.cy!3!1| l175))) (let ((l183 (or l171 l182))) (let ((l184 (= |next.cy!4!1| l175))) (let ((l185 (or l171 l184))) (let ((l186 (not |state.good_r!2|))) (let ((l187 (ite l156 |state.cx!1!2| |state.cx!0!2|))) (let ((l188 (ite l155 |state.cx!2!2| l187))) (let ((l189 (ite l154 |state.cx!3!2| l188))) (let ((l190 (ite l153 |state.cx!4!2| l189))) (let ((l191 (= |next.cy!0!2| l190))) (let ((l192 (or l186 l191))) (let ((l193 (= |next.cy!1!2| l190))) (let ((l194 (or l186 l193))) (let ((l195 (= |next.cy!2!2| l190))) (let ((l196 (or l186 l195))) (let ((l197 (= |next.cy!3!2| l190))) (let ((l198 (or l186 l197))) (let ((l199 (= |next.cy!4!2| l190))) (let ((l200 (or l186 l199))) (let ((l201 (not |state.good_r!3|))) (let ((l202 (ite l156 |state.cx!1!3| |state.cx!0!3|))) (let ((l203 (ite l155 |state.cx!2!3| l202))) (let ((l204 (ite l154 |state.cx!3!3| l203))) (let ((l205 (ite l153 |state.cx!4!3| l204))) (let ((l206 (= |next.cy!0!3| l205))) (let ((l207 (or l201 l206))) (let ((l208 (= |next.cy!1!3| l205))) (let ((l209 (or l201 l208))) (let ((l210 (= |next.cy!2!3| l205))) (let ((l211 (or l201 l210))) (let ((l212 (= |next.cy!3!3| l205))) (let ((l213 (or l201 l212))) (let ((l214 (= |next.cy!4!3| l205))) (let ((l215 (or l201 l214))) (let ((l216 (not |state.good_r!4|))) (let ((l217 (ite l156 |state.cx!1!4| |state.cx!0!4|))) (let ((l218 (ite l155 |state.cx!2!4| l217))) (let ((l219 (ite l154 |state.cx!3!4| l218))) (let ((l220 (ite l153 |state.cx!4!4| l219))) (let ((l221 (= |next.cy!0!4| l220))) (let ((l222 (or l216 l221))) (let ((l223 (= |next.cy!1!4| l220))) (let ((l224 (or l216 l223))) (let ((l225 (= |next.cy!2!4| l220))) (let ((l226 (or l216 l225))) (let ((l227 (= |next.cy!3!4| l220))) (let ((l228 (or l216 l227))) (let ((l229 (= |next.cy!4!4| l220))) (let ((l230 (or l216 l229))) (let ((l231 (not |state.good_r!5|))) (let ((l232 (ite l156 |state.cx!1!5| |state.cx!0!5|))) (let ((l233 (ite l155 |state.cx!2!5| l232))) (let ((l234 (ite l154 |state.cx!3!5| l233))) (let ((l235 (ite l153 |state.cx!4!5| l234))) (let ((l236 (= |next.cy!0!5| l235))) (let ((l237 (or l231 l236))) (let ((l238 (= |next.cy!1!5| l235))) (let ((l239 (or l231 l238))) (let ((l240 (= |next.cy!2!5| l235))) (let ((l241 (or l231 l240))) (let ((l242 (= |next.cy!3!5| l235))) (let ((l243 (or l231 l242))) (let ((l244 (= |next.cy!4!5| l235))) (let ((l245 (or l231 l244))) (let ((l246 (and l162 l164 l166 l168 l170 l177 l179 l181 l183 l185 l192 l194 l196 l198 l200 l207 l209 l211 l213 l215 l222 l224 l226 l228 l230 l237 l239 l241 l243 l245))) (let ((l247 (= |next.round| 2))) (let ((l248 (= |next.cx!0!0| |state.cx!0!0|))) (let ((l249 (= |next.cx!0!1| |state.cx!0!1|))) (let ((l250 (= |next.cx!0!2| |state.cx!0!2|))) (let ((l251 (= |next.cx!0!3| |state.cx!0!3|))) (let ((l252 (= |next.cx!0!4| |state.cx!0!4|))) (let ((l253 (= |next.cx!0!5| |state.cx!0!5|))) (let ((l254 (= |next.cx!1!0| |state.cx!1!0|))) (let ((l255 (= |next.cx!1!1| |state.cx!1!1|))) (let ((l256 (= |next.cx!1!2| |state.cx!1!2|))) (let ((l257 (= |next.cx!1!3| |state.cx!1!3|))) (let ((l258 (= |next.cx!1!4| |state.cx!1!4|))) (let ((l259 (= |next.cx!1!5| |state.cx!1!5|))) (let ((l260 (= |next.cx!2!0| |state.cx!2!0|))) (let ((l261 (= |next.cx!2!1| |state.cx!2!1|))) (let ((l262 (= |next.cx!2!2| |state.cx!2!2|))) (let ((l263 (= |next.cx!2!3| |state.cx!2!3|))) (let ((l264 (= |next.cx!2!4| |state.cx!2!4|))) (let ((l265 (= |next.cx!2!5| |state.cx!2!5|))) (let ((l266 (= |next.cx!3!0| |state.cx!3!0|))) (let ((l267 (= |next.cx!3!1| |state.cx!3!1|))) (let ((l268 (= |next.cx!3!2| |state.cx!3!2|))) (let ((l269 (= |next.cx!3!3| |state.cx!3!3|))) (let ((l270 (= |next.cx!3!4| |state.cx!3!4|))) (let ((l271 (= |next.cx!3!5| |state.cx!3!5|))) (let ((l272 (= |next.cx!4!0| |state.cx!4!0|))) (let ((l273 (= |next.cx!4!1| |state.cx!4!1|))) (let ((l274 (= |next.cx!4!2| |state.cx!4!2|))) (let ((l275 (= |next.cx!4!3| |state.cx!4!3|))) (let ((l276 (= |next.cx!4!4| |state.cx!4!4|))) (let ((l277 (= |next.cx!4!5| |state.cx!4!5|))) (let ((l278 (and l248 l249 l250 l251 l252 l253 l254 l255 l256 l257 l258 l259 l260 l261 l262 l263 l264 l265 l266 l267 l268 l269 l270 l271 l272 l273 l274 l275 l276 l277))) (let ((l279 (and l151 l246 l247 l278 l136 l143 l149))) (let ((l280 (= |state.round| 2))) (let ((l281 (= |state.cy!0!4| |state.cy!0!5|))) (let ((l282 (ite l281 2 0))) (let ((l283 (= l282 0))) (let ((l284 (= |state.cy!0!3| |state.cy!0!5|))) (let ((l285 (+ l282 1))) (let ((l286 (- l282 1))) (let ((l287 (ite l284 l285 l286))) (let ((l288 (ite l283 1 l287))) (let ((l289 (= l288 0))) (let ((l290 (ite l283 |state.cy!0!3| |state.cy!0!5|))) (let ((l291 (= |state.cy!0!2| l290))) (let ((l292 (+ l288 1))) (let ((l293 (- l288 1))) (let ((l294 (ite l291 l292 l293))) (let ((l295 (ite l289 1 l294))) (let ((l296 (= l295 0))) (let ((l297 (ite l289 |state.cy!0!2| l290))) (let ((l298 (= |state.cy!0!1| l297))) (let ((l299 (+ l295 1))) (let ((l300 (- l295 1))) (let ((l301 (ite l298 l299 l300))) (let ((l302 (ite l296 1 l301))) (let ((l303 (= l302 0))) (let ((l304 (ite l296 |state.cy!0!1| l297))) (let ((l305 (ite l303 |state.cy!0!0| l304))) (let ((l306 (= |state.cy!0!5| l305))) (let ((l307 (ite l306 3 4))) (let ((l308 (= l307 0))) (let ((l309 (= |state.cy!0!4| l305))) (let ((l310 (- l307 1))) (let ((l311 (ite l309 l310 l307))) (let ((l312 (= l311 0))) (let ((l313 (= |state.cy!0!3| l305))) (let ((l314 (- l311 1))) (let ((l315 (ite l313 l314 l311))) (let ((l316 (= l315 0))) (let ((l317 (= |state.cy!0!2| l305))) (let ((l318 (- l315 1))) (let ((l319 (ite l317 l318 l315))) (let ((l320 (= l319 0))) (let ((l321 (= |state.cy!0!1| l305))) (let ((l322 (- l319 1))) (let ((l323 (ite l321 l322 l319))) (let ((l324 (= l323 0))) (let ((l325 (= |state.cy!0!0| l305))) (let ((l326 (- l323 1))) (let ((l327 (ite l325 l326 l323))) (let ((l328 (= l327 0))) (let ((l329 (or l308 l312 l316 l320 l324 l328))) (let ((l330 (ite l329 l305 0))) (let ((l331 (= |next.v!0| l330))) (let ((l332 (or l3 l331))) (let ((l333 (= |state.cy!1!4| |state.cy!1!5|))) (let ((l334 (ite l333 2 0))) (let ((l335 (= l334 0))) (let ((l336 (= |state.cy!1!3| |state.cy!1!5|))) (let ((l337 (+ l334 1))) (let ((l338 (- l334 1))) (let ((l339 (ite l336 l337 l338))) (let ((l340 (ite l335 1 l339))) (let ((l341 (= l340 0))) (let ((l342 (ite l335 |state.cy!1!3| |state.cy!1!5|))) (let ((l343 (= |state.cy!1!2| l342))) (let ((l344 (+ l340 1))) (let ((l345 (- l340 1))) (let ((l346 (ite l343 l344 l345))) (let ((l347 (ite l341 1 l346))) (let ((l348 (= l347 0))) (let ((l349 (ite l341 |state.cy!1!2| l342))) (let ((l350 (= |state.cy!1!1| l349))) (let ((l351 (+ l347 1))) (let ((l352 (- l347 1))) (let ((l353 (ite l350 l351 l352))) (let ((l354 (ite l348 1 l353))) (let ((l355 (= l354 0))) (let ((l356 (ite l348 |state.cy!1!1| l349))) (let ((l357 (ite l355 |state.cy!1!0| l356))) (let ((l358 (= |state.cy!1!5| l357))) (let ((l359 (ite l358 3 4))) (let ((l360 (= l359 0))) (let ((l361 (= |state.cy!1!4| l357))) (let ((l362 (- l359 1))) (let ((l363 (ite l361 l362 l359))) (let ((l364 (= l363 0))) (let ((l365 (= |state.cy!1!3| l357))) (let ((l366 (- l363 1))) (let ((l367 (ite l365 l366 l363))) (let ((l368 (= l367 0))) (let ((l369 (= |state.cy!1!2| l357))) (let ((l370 (- l367 1))) (let ((l371 (ite l369 l370 l367))) (let ((l372 (= l371 0))) (let ((l373 (= |state.cy!1!1| l357))) (let ((l374 (- l371 1))) (let ((l375 (ite l373 l374 l371))) (let ((l376 (= l375 0))) (let ((l377 (= |state.cy!1!0| l357))) (let ((l378 (- l375 1))) (let ((l379 (ite l377 l378 l375))) (let ((l380 (= l379 0))) (let ((l381 (or l360 l364 l368 l372 l376 l380))) (let ((l382 (ite l381 l357 0))) (let ((l383 (= |next.v!1| l382))) (let ((l384 (or l14 l383))) (let ((l385 (= |state.cy!2!4| |state.cy!2!5|))) (let ((l386 (ite l385 2 0))) (let ((l387 (= l386 0))) (let ((l388 (= |state.cy!2!3| |state.cy!2!5|))) (let ((l389 (+ l386 1))) (let ((l390 (- l386 1))) (let ((l391 (ite l388 l389 l390))) (let ((l392 (ite l387 1 l391))) (let ((l393 (= l392 0))) (let ((l394 (ite l387 |state.cy!2!3| |state.cy!2!5|))) (let ((l395 (= |state.cy!2!2| l394))) (let ((l396 (+ l392 1))) (let ((l397 (- l392 1))) (let ((l398 (ite l395 l396 l397))) (let ((l399 (ite l393 1 l398))) (let ((l400 (= l399 0))) (let ((l401 (ite l393 |state.cy!2!2| l394))) (let ((l402 (= |state.cy!2!1| l401))) (let ((l403 (+ l399 1))) (let ((l404 (- l399 1))) (let ((l405 (ite l402 l403 l404))) (let ((l406 (ite l400 1 l405))) (let ((l407 (= l406 0))) (let ((l408 (ite l400 |state.cy!2!1| l401))) (let ((l409 (ite l407 |state.cy!2!0| l408))) (let ((l410 (= |state.cy!2!5| l409))) (let ((l411 (ite l410 3 4))) (let ((l412 (= l411 0))) (let ((l413 (= |state.cy!2!4| l409))) (let ((l414 (- l411 1))) (let ((l415 (ite l413 l414 l411))) (let ((l416 (= l415 0))) (let ((l417 (= |state.cy!2!3| l409))) (let ((l418 (- l415 1))) (let ((l419 (ite l417 l418 l415))) (let ((l420 (= l419 0))) (let ((l421 (= |state.cy!2!2| l409))) (let ((l422 (- l419 1))) (let ((l423 (ite l421 l422 l419))) (let ((l424 (= l423 0))) (let ((l425 (= |state.cy!2!1| l409))) (let ((l426 (- l423 1))) (let ((l427 (ite l425 l426 l423))) (let ((l428 (= l427 0))) (let ((l429 (= |state.cy!2!0| l409))) (let ((l430 (- l427 1))) (let ((l431 (ite l429 l430 l427))) (let ((l432 (= l431 0))) (let ((l433 (or l412 l416 l420 l424 l428 l432))) (let ((l434 (ite l433 l409 0))) (let ((l435 (= |next.v!2| l434))) (let ((l436 (or l25 l435))) (let ((l437 (= |state.cy!3!4| |state.cy!3!5|))) (let ((l438 (ite l437 2 0))) (let ((l439 (= l438 0))) (let ((l440 (= |state.cy!3!3| |state.cy!3!5|))) (let ((l441 (+ l438 1))) (let ((l442 (- l438 1))) (let ((l443 (ite l440 l441 l442))) (let ((l444 (ite l439 1 l443))) (let ((l445 (= l444 0))) (let ((l446 (ite l439 |state.cy!3!3| |state.cy!3!5|))) (let ((l447 (= |state.cy!3!2| l446))) (let ((l448 (+ l444 1))) (let ((l449 (- l444 1))) (let ((l450 (ite l447 l448 l449))) (let ((l451 (ite l445 1 l450))) (let ((l452 (= l451 0))) (let ((l453 (ite l445 |state.cy!3!2| l446))) (let ((l454 (= |state.cy!3!1| l453))) (let ((l455 (+ l451 1))) (let ((l456 (- l451 1))) (let ((l457 (ite l454 l455 l456))) (let ((l458 (ite l452 1 l457))) (let ((l459 (= l458 0))) (let ((l460 (ite l452 |state.cy!3!1| l453))) (let ((l461 (ite l459 |state.cy!3!0| l460))) (let ((l462 (= |state.cy!3!5| l461))) (let ((l463 (ite l462 3 4))) (let ((l464 (= l463 0))) (let ((l465 (= |state.cy!3!4| l461))) (let ((l466 (- l463 1))) (let ((l467 (ite l465 l466 l463))) (let ((l468 (= l467 0))) (let ((l469 (= |state.cy!3!3| l461))) (let ((l470 (- l467 1))) (let ((l471 (ite l469 l470 l467))) (let ((l472 (= l471 0))) (let ((l473 (= |state.cy!3!2| l461))) (let ((l474 (- l471 1))) (let ((l475 (ite l473 l474 l471))) (let ((l476 (= l475 0))) (let ((l477 (= |state.cy!3!1| l461))) (let ((l478 (- l475 1))) (let ((l479 (ite l477 l478 l475))) (let ((l480 (= l479 0))) (let ((l481 (= |state.cy!3!0| l461))) (let ((l482 (- l479 1))) (let ((l483 (ite l481 l482 l479))) (let ((l484 (= l483 0))) (let ((l485 (or l464 l468 l472 l476 l480 l484))) (let ((l486 (ite l485 l461 0))) (let ((l487 (= |next.v!3| l486))) (let ((l488 (or l36 l487))) (let ((l489 (= |state.cy!4!4| |state.cy!4!5|))) (let ((l490 (ite l489 2 0))) (let ((l491 (= l490 0))) (let ((l492 (= |state.cy!4!3| |state.cy!4!5|))) (let ((l493 (+ l490 1))) (let ((l494 (- l490 1))) (let ((l495 (ite l492 l493 l494))) (let ((l496 (ite l491 1 l495))) (let ((l497 (= l496 0))) (let ((l498 (ite l491 |state.cy!4!3| |state.cy!4!5|))) (let ((l499 (= |state.cy!4!2| l498))) (let ((l500 (+ l496 1))) (let ((l501 (- l496 1))) (let ((l502 (ite l499 l500 l501))) (let ((l503 (ite l497 1 l502))) (let ((l504 (= l503 0))) (let ((l505 (ite l497 |state.cy!4!2| l498))) (let ((l506 (= |state.cy!4!1| l505))) (let ((l507 (+ l503 1))) (let ((l508 (- l503 1))) (let ((l509 (ite l506 l507 l508))) (let ((l510 (ite l504 1 l509))) (let ((l511 (= l510 0))) (let ((l512 (ite l504 |state.cy!4!1| l505))) (let ((l513 (ite l511 |state.cy!4!0| l512))) (let ((l514 (= |state.cy!4!5| l513))) (let ((l515 (ite l514 3 4))) (let ((l516 (= l515 0))) (let ((l517 (= |state.cy!4!4| l513))) (let ((l518 (- l515 1))) (let ((l519 (ite l517 l518 l515))) (let ((l520 (= l519 0))) (let ((l521 (= |state.cy!4!3| l513))) (let ((l522 (- l519 1))) (let ((l523 (ite l521 l522 l519))) (let ((l524 (= l523 0))) (let ((l525 (= |state.cy!4!2| l513))) (let ((l526 (- l523 1))) (let ((l527 (ite l525 l526 l523))) (let ((l528 (= l527 0))) (let ((l529 (= |state.cy!4!1| l513))) (let ((l530 (- l527 1))) (let ((l531 (ite l529 l530 l527))) (let ((l532 (= l531 0))) (let ((l533 (= |state.cy!4!0| l513))) (let ((l534 (- l531 1))) (let ((l535 (ite l533 l534 l531))) (let ((l536 (= l535 0))) (let ((l537 (or l516 l520 l524 l528 l532 l536))) (let ((l538 (ite l537 l513 0))) (let ((l539 (= |next.v!4| l538))) (let ((l540 (or l47 l539))) (let ((l541 (and l332 l384 l436 l488 l540))) (let ((l542 (= |next.round| 3))) (let ((l543 (and l280 l541 l542 l278 l130 l136 l143))) (let ((l544 (= |state.round| 3))) (let ((l545 (= |next.round| |state.round|))) (let ((l546 (and l544 l278 l130 l136 l143 l545 l149))) (let ((l547 (or l150 l279 l543 l546))) (let ((l548 (and l0 l1 l547))) l548)))))))))))))))))))))))))))))))))))))))))))))))))))))))))))))))))))))))))))))))))))))))))))))))))))))))))))))))))))))))))))))))))))))))))))))))))))))))))))))))))))))))))))))))))))))))))))))))))))))))))))))))))))))))))))))))))))))))))))))))))))))))))))))))))))))))))))))))))))))))))))))))))))))))))))))))))))))))))))))))))))))))))))))))))))))))))))))))))))))))))))))))))))))))))))))))))))))))))))))))))))))))))))))))))))))))))))))))))))))))))))))))))))))))))))))))))))))))))))))))))))))))))))))))))))))))))))))))))))))))))))))))))))))))))))))))))))))
        )
        (invariant next.cx!0!0 next.cx!0!1 next.cx!0!2 next.cx!0!3 next.cx!0!4 next.cx!0!5 next.cx!1!0 next.cx!1!1 next.cx!1!2 next.cx!1!3 next.cx!1!4 next.cx!1!5 next.cx!2!0 next.cx!2!1 next.cx!2!2 next.cx!2!3 next.cx!2!4 next.cx!2!5 next.cx!3!0 next.cx!3!1 next.cx!3!2 next.cx!3!3 next.cx!3!4 next.cx!3!5 next.cx!4!0 next.cx!4!1 next.cx!4!2 next.cx!4!3 next.cx!4!4 next.cx!4!5 next.cy!0!0 next.cy!0!1 next.cy!0!2 next.cy!0!3 next.cy!0!4 next.cy!0!5 next.cy!1!0 next.cy!1!1 next.cy!1!2 next.cy!1!3 next.cy!1!4 next.cy!1!5 next.cy!2!0 next.cy!2!1 next.cy!2!2 next.cy!2!3 next.cy!2!4 next.cy!2!5 next.cy!3!0 next.cy!3!1 next.cy!3!2 next.cy!3!3 next.cy!3!4 next.cy!3!5 next.cy!4!0 next.cy!4!1 next.cy!4!2 next.cy!4!3 next.cy!4!4 next.cy!4!5 next.good_p!0 next.good_p!1 next.good_p!2 next.good_p!3 next.good_p!4 next.good_r!0 next.good_r!1 next.good_r!2 next.good_r!3 next.good_r!4 next.good_r!5 next.v!0 next.v!1 next.v!2 next.v!3 next.v!4 next.round next.source next.val)
    )
  )
)

;; Property
(assert
  (forall ((state.cx!0!0 Real) (state.cx!0!1 Real) (state.cx!0!2 Real) (state.cx!0!3 Real) (state.cx!0!4 Real) (state.cx!0!5 Real) (state.cx!1!0 Real) (state.cx!1!1 Real) (state.cx!1!2 Real) (state.cx!1!3 Real) (state.cx!1!4 Real) (state.cx!1!5 Real) (state.cx!2!0 Real) (state.cx!2!1 Real) (state.cx!2!2 Real) (state.cx!2!3 Real) (state.cx!2!4 Real) (state.cx!2!5 Real) (state.cx!3!0 Real) (state.cx!3!1 Real) (state.cx!3!2 Real) (state.cx!3!3 Real) (state.cx!3!4 Real) (state.cx!3!5 Real) (state.cx!4!0 Real) (state.cx!4!1 Real) (state.cx!4!2 Real) (state.cx!4!3 Real) (state.cx!4!4 Real) (state.cx!4!5 Real) (state.cy!0!0 Real) (state.cy!0!1 Real) (state.cy!0!2 Real) (state.cy!0!3 Real) (state.cy!0!4 Real) (state.cy!0!5 Real) (state.cy!1!0 Real) (state.cy!1!1 Real) (state.cy!1!2 Real) (state.cy!1!3 Real) (state.cy!1!4 Real) (state.cy!1!5 Real) (state.cy!2!0 Real) (state.cy!2!1 Real) (state.cy!2!2 Real) (state.cy!2!3 Real) (state.cy!2!4 Real) (state.cy!2!5 Real) (state.cy!3!0 Real) (state.cy!3!1 Real) (state.cy!3!2 Real) (state.cy!3!3 Real) (state.cy!3!4 Real) (state.cy!3!5 Real) (state.cy!4!0 Real) (state.cy!4!1 Real) (state.cy!4!2 Real) (state.cy!4!3 Real) (state.cy!4!4 Real) (state.cy!4!5 Real) (state.good_p!0 Bool) (state.good_p!1 Bool) (state.good_p!2 Bool) (state.good_p!3 Bool) (state.good_p!4 Bool) (state.good_r!0 Bool) (state.good_r!1 Bool) (state.good_r!2 Bool) (state.good_r!3 Bool) (state.good_r!4 Bool) (state.good_r!5 Bool) (state.v!0 Real) (state.v!1 Real) (state.v!2 Real) (state.v!3 Real) (state.v!4 Real) (state.round Real) (state.source Real) (state.val Real))
    (=> (invariant state.cx!0!0 state.cx!0!1 state.cx!0!2 state.cx!0!3 state.cx!0!4 state.cx!0!5 state.cx!1!0 state.cx!1!1 state.cx!1!2 state.cx!1!3 state.cx!1!4 state.cx!1!5 state.cx!2!0 state.cx!2!1 state.cx!2!2 state.cx!2!3 state.cx!2!4 state.cx!2!5 state.cx!3!0 state.cx!3!1 state.cx!3!2 state.cx!3!3 state.cx!3!4 state.cx!3!5 state.cx!4!0 state.cx!4!1 state.cx!4!2 state.cx!4!3 state.cx!4!4 state.cx!4!5 state.cy!0!0 state.cy!0!1 state.cy!0!2 state.cy!0!3 state.cy!0!4 state.cy!0!5 state.cy!1!0 state.cy!1!1 state.cy!1!2 state.cy!1!3 state.cy!1!4 state.cy!1!5 state.cy!2!0 state.cy!2!1 state.cy!2!2 state.cy!2!3 state.cy!2!4 state.cy!2!5 state.cy!3!0 state.cy!3!1 state.cy!3!2 state.cy!3!3 state.cy!3!4 state.cy!3!5 state.cy!4!0 state.cy!4!1 state.cy!4!2 state.cy!4!3 state.cy!4!4 state.cy!4!5 state.good_p!0 state.good_p!1 state.good_p!2 state.good_p!3 state.good_p!4 state.good_r!0 state.good_r!1 state.good_r!2 state.good_r!3 state.good_r!4 state.good_r!5 state.v!0 state.v!1 state.v!2 state.v!3 state.v!4 state.round state.source state.val)
        (let ((l0 (= |state.source| 5))) (let ((l1 (= |state.source| 4))) (let ((l2 (= |state.source| 3))) (let ((l3 (= |state.source| 2))) (let ((l4 (ite l3 |state.good_p!1| |state.good_p!0|))) (let ((l5 (ite l2 |state.good_p!2| l4))) (let ((l6 (ite l1 |state.good_p!3| l5))) (let ((l7 (ite l0 |state.good_p!4| l6))) (let ((l8 (not l7))) (let ((l9 (< |state.round| 3))) (let ((l10 (not |state.good_p!0|))) (let ((l11 (= |state.v!0| |state.val|))) (let ((l12 (or l10 l11))) (let ((l13 (not |state.good_p!1|))) (let ((l14 (= |state.v!1| |state.val|))) (let ((l15 (or l13 l14))) (let ((l16 (not |state.good_p!2|))) (let ((l17 (= |state.v!2| |state.val|))) (let ((l18 (or l16 l17))) (let ((l19 (not |state.good_p!3|))) (let ((l20 (= |state.v!3| |state.val|))) (let ((l21 (or l19 l20))) (let ((l22 (not |state.good_p!4|))) (let ((l23 (= |state.v!4| |state.val|))) (let ((l24 (or l22 l23))) (let ((l25 (and l12 l15 l18 l21 l24))) (let ((l26 (or l8 l9 l25))) l26)))))))))))))))))))))))))))
    )
  )
)

;; Check the property
(check-sat)
